swarm_exploration/utils/lkh_mtsp_solver/resource/amtsp2_3.atsp
NAME : amtsp
TYPE : ATSP
DIMENSION : 8
EDGE_WEIGHT_TYPE : EXPLICIT
EDGE_WEIGHT_FORMAT : FULL_MATRIX
EDGE_WEIGHT_SECTION
100000 -100000 100000 100000 100000 100000 100000 100000 
100000 100000 2025 -117 502 1823 1888 1589 
0 0 100000 777 602 631 398 376 
0 0 777 100000 523 750 811 639 
0 0 602 523 100000 -257 -185 -273 
0 0 631 750 -257 100000 -266 -165 
0 0 398 811 -185 -266 100000 -274 
0 0 376 639 -273 -165 -274 100000 
