swarm_exploration/utils/lkh_mtsp_solver/resource/amtsp2_3.tour
NAME : amtsp.-100015.tour
COMMENT : Length = -100015
COMMENT : Found by LKH [Keld Helsgaun] Sun Jan 14 20:52:21 2024
TYPE : TOUR
DIMENSION : 8
TOUR_SECTION
1
2
4
5
6
7
8
3
-1
EOF
